benchmark_str_length/p2_10_5-3.dzn
Alphabet = {A,C,G,T};
ns = 10;
nc = 4;
sl = 4;
neighbours = [| I(A),Null,Null,Null | Null,Null,Null,Null | I(C),I(T),I(C),I(C) | I(T),I(T),Null,Null | I(C),I(A),Null,Null | I(C),I(G),Null,Null | I(A),I(T),Null,Null | I(A),Null,Null,Null | I(T),I(A),Null,Null | I(T),I(A),I(T),I(G) |];
