benchmark_str_length/p2_10_5-3.txt
{
	"num_strings": 10,
	"alphabet": "ACGT",
	"strings": [
		"A",
		"",
		"CTCC",
		"TT",
		"CA",
		"CG",
		"AT",
		"A",
		"TA",
		"TATG"
	],
	"str_length":[1,0,4,2,2,2,2,1,2,4]
}